p cnf 12 50 
10 -4 -9 0
-6 -8 -7 0
-2 -3 1 0
1 -3 8 0
11 -1 6 0
3 -11 -1 0
12 10 5 0
4 2 -9 0
-10 5 8 0
12 -6 -10 0
12 6 2 0
-8 -10 7 0
5 -6 10 0
12 7 -3 0
5 -9 -12 0
-2 -9 -10 0
-10 3 -11 0
7 9 5 0
2 -8 -6 0
10 8 -6 0
-5 11 -3 0
-1 -4 -10 0
3 7 10 0
11 -5 4 0
-6 2 -3 0
12 11 -8 0
-6 3 -8 0
-1 8 -6 0
-6 -7 11 0
-12 6 -5 0
-1 5 11 0
-6 8 11 0
8 -4 7 0
-2 -10 -5 0
-7 -9 -4 0
-8 -5 -9 0
4 7 9 0
-6 9 4 0
-4 2 8 0
-9 -6 2 0
-8 4 -3 0
5 11 12 0
1 7 11 0
-9 8 -3 0
-11 8 -6 0
5 -11 -8 0
4 -1 -8 0
7 -10 -3 0
-3 -6 2 0
7 -10 -3 0
